language Essence 1.3

letting bot_end be
        [104, 33, 114, 219, 220, 155, 53, 100, 174, 3, 214, 206, 182, 75, 167, 59, 82, 203, 198, 15, 99; int(1..21)]
letting bot_start be
        [92, 166, 49, 9, 0, 27, 157, 98, 147, 220, 197, 69, 219, 150, 130, 155, 152, 24, 124, 224, 217; int(1..21)]
letting bots be 21
letting buffer_col be 2
letting buffer_row be 2
letting corridor_size be 1
letting n_shelves_col be 3
letting n_shelves_row be 7
letting shelf_col_size be 2
letting shelf_row_size be 1
